10
5
590
82 23 45 38 84
18 29 21 50 41
52 52 38 54 16
54 62 74 57 37
81 61 30 68 57
79 89 89 11 81
91 66 20 33 20
32 84 55 8 24
7 39 64 54 56
19 83 8 7 40
2 3 1 5 4
3 2 1 5 4
3 4 5 1 2
5 1 3 2 4
5 1 2 4 3
5 1 2 3 4
4 3 1 5 2
5 2 1 3 4
5 1 4 3 2
5 2 1 3 4

